291679
291679
291679
291679
291679
291679
291679
290653
289482
288552
288552
287510
287510
287510
286227
285552
285084
282816
282677
281975
281975
281975
280263
279935
279935
277346
277346
277207
276391
276391
276391
276391
276391
276391
276391
272953
272953
272953
272953
272953
272953
272953
272953
272953
272953
272953
272953
270806
270806
270806
270806
270806
270806
270806
270806
269718
269718
269718
269718
269718
269718
269235
269235
269235
269235
269235
269235
269235
269235
269235
268748
267651
265537
265356
265356
265356
265356
265356
265356
265356
265356
265356
265356
265356
265356
265356
262381
262381
262381
262381
262381
262381
262381
262123
262123
262123
262123
262123
262123
262123
